\* column_knapsack_problem *\
Minimize
knapsack: 5 col_1 + 25 col_10 + 25 col_11 + 23 col_12 + 25 col_13 + 26 col_14
 + 24 col_15 + 25 col_17 + 27 col_18 + 25 col_19 + 25 col_20 + 25 col_21
 + 27 col_22 + 24 col_24 + 26 col_25 + 22 col_26 + 26 col_3 + 25 col_30
 + 23 col_31 + 24 col_32 + 24 col_33 + 26 col_35 + 25 col_36 + 26 col_39
 + 25 col_4 + 24 col_41 + 25 col_43 + 25 col_46 + 26 col_47 + 23 col_48
 + 26 col_49 + 27 col_6 + 25 col_7 + 25 col_8
Subject To
sensitivity: 29 col_1 + 9 col_10 + 9 col_11 + 11 col_12 + 9 col_13 + 8 col_14
 + 10 col_15 + 9 col_17 + 7 col_18 + 9 col_19 + 9 col_20 + 9 col_21 + 7 col_22
 + 10 col_24 + 8 col_25 + 12 col_26 + 8 col_3 + 9 col_30 + 11 col_31
 + 10 col_32 + 10 col_33 + 8 col_35 + 9 col_36 + 8 col_39 + 9 col_4
 + 10 col_41 + 9 col_43 + 9 col_46 + 8 col_47 + 11 col_48 + 8 col_49 + 7 col_6
 + 9 col_7 + 9 col_8 >= 32.7
Bounds
 col_1 <= 1
 col_10 <= 1
 col_11 <= 1
 col_12 <= 1
 col_13 <= 1
 col_14 <= 1
 col_15 <= 1
 col_17 <= 1
 col_18 <= 1
 col_19 <= 1
 col_20 <= 1
 col_21 <= 1
 col_22 <= 1
 col_24 <= 1
 col_25 <= 1
 col_26 <= 1
 col_3 <= 1
 col_30 <= 1
 col_31 <= 1
 col_32 <= 1
 col_33 <= 1
 col_35 <= 1
 col_36 <= 1
 col_39 <= 1
 col_4 <= 1
 col_41 <= 1
 col_43 <= 1
 col_46 <= 1
 col_47 <= 1
 col_48 <= 1
 col_49 <= 1
 col_6 <= 1
 col_7 <= 1
 col_8 <= 1
End
